# Solution for model micodag
# Objective value = 1.6250063317855467e+01
s_0_1 0
s_1_0 0
s_0_2 0
s_2_0 2.4814942970807419e-01
s_0_3 0
s_3_0 2.5028799732496321e-01
s_1_8 0
s_8_1 1.3385013553861835e+00
s_3_4 0
s_4_3 1.6326558532473712e-01
s_3_5 0
s_5_3 0
s_3_6 0
s_6_3 0
s_3_7 0
s_7_3 1.3454753895538651e-01
s_3_9 0
s_9_3 0
s_3_10 0
s_10_3 4.0009283155986441e-01
s_3_13 0
s_13_3 6.7222104644559177e-01
s_4_5 0
s_5_4 2.2713860241532746e-01
s_4_6 0
s_6_4 6.5465101525345837e-01
s_4_7 9.8848231795180563e-01
s_7_4 0
s_5_10 0
s_10_5 2.7005194268354060e-01
s_6_7 0
s_7_6 0
s_6_9 0
s_9_6 0
s_6_10 0
s_10_6 0
s_6_13 0
s_13_6 5.6712267134095828e-01
s_7_9 0
s_9_7 0
s_7_10 0
s_10_7 0
s_7_13 0
s_13_7 6.6070141297417706e-01
s_8_9 0
s_9_8 5.1763289651129174e-01
s_9_10 0
s_10_9 0
s_9_13 0
s_13_9 3.4555433320335904e-01
s_10_11 0
s_11_10 4.9328848255538116e+00
s_10_12 0
s_12_10 4.9328848255538116e+00
s_10_13 0
s_13_10 4.9328848255538116e+00
s_0_0 6.1159088383379778e-01
s_1_1 9.4737045661279451e-01
s_2_2 6.8674862107835111e-01
s_3_3 6.6410749507802880e-01
s_4_4 2.1901249827799054e+00
s_5_5 6.4143757944639024e-01
s_6_6 1.0206816748603531e+00
s_7_7 8.4849999124023956e-01
s_8_8 2.0663480136980477e+00
s_9_9 0.949312096430222
s_10_10 4.9328848255538116e+00
s_11_11 7.7110649131390208e-01
s_12_12 1.0218300629294435e+00
s_13_13 1.0253797514751279e+00
Gamma_0_0 7.8204276343036272e-01
Gamma_0_1 0
Gamma_0_2 0
Gamma_0_3 0
Gamma_0_4 0
Gamma_0_5 0
Gamma_0_6 0
Gamma_0_7 0
Gamma_0_8 0
Gamma_0_9 0
Gamma_0_10 0
Gamma_0_11 0
Gamma_0_12 0
Gamma_0_13 0
Gamma_1_0 0
Gamma_1_1 0.973329572453645
Gamma_1_2 0
Gamma_1_3 0
Gamma_1_4 0
Gamma_1_5 0
Gamma_1_6 0
Gamma_1_7 0
Gamma_1_8 0
Gamma_1_9 0
Gamma_1_10 0
Gamma_1_11 0
Gamma_1_12 0
Gamma_1_13 0
Gamma_2_0 -4.9814599236375967e-01
Gamma_2_1 0
Gamma_2_2 8.2870297518372149e-01
Gamma_2_3 0
Gamma_2_4 0
Gamma_2_5 0
Gamma_2_6 0
Gamma_2_7 0
Gamma_2_8 0
Gamma_2_9 0
Gamma_2_10 0
Gamma_2_11 0
Gamma_2_12 0
Gamma_2_13 0
Gamma_3_0 5.0028791443024456e-01
Gamma_3_1 0
Gamma_3_2 0
Gamma_3_3 8.1492790790230640e-01
Gamma_3_4 0
Gamma_3_5 0
Gamma_3_6 0
Gamma_3_7 0
Gamma_3_8 0
Gamma_3_9 0
Gamma_3_10 0
Gamma_3_11 0
Gamma_3_12 0
Gamma_3_13 0
Gamma_4_0 0
Gamma_4_1 0
Gamma_4_2 0
Gamma_4_3 -4.0406136331594267e-01
Gamma_4_4 1.4799070858604284e+00
Gamma_4_5 0
Gamma_4_6 0
Gamma_4_7 -9.9422448066410352e-01
Gamma_4_8 0
Gamma_4_9 0
Gamma_4_10 0
Gamma_4_11 0
Gamma_4_12 0
Gamma_4_13 0
Gamma_5_0 0
Gamma_5_1 0
Gamma_5_2 0
Gamma_5_3 0
Gamma_5_4 -4.7659060252519453e-01
Gamma_5_5 8.0089798317038541e-01
Gamma_5_6 0
Gamma_5_7 0
Gamma_5_8 0
Gamma_5_9 0
Gamma_5_10 0
Gamma_5_11 0
Gamma_5_12 0
Gamma_5_13 0
Gamma_6_0 0
Gamma_6_1 0
Gamma_6_2 0
Gamma_6_3 0
Gamma_6_4 8.0910507058938863e-01
Gamma_6_5 0
Gamma_6_6 1.0102879168139913e+00
Gamma_6_7 0
Gamma_6_8 0
Gamma_6_9 0
Gamma_6_10 0
Gamma_6_11 0
Gamma_6_12 0
Gamma_6_13 0
Gamma_7_0 0
Gamma_7_1 0
Gamma_7_2 0
Gamma_7_3 -0.366807223150509
Gamma_7_4 0
Gamma_7_5 0
Gamma_7_6 0
Gamma_7_7 9.2114059254830383e-01
Gamma_7_8 0
Gamma_7_9 0
Gamma_7_10 0
Gamma_7_11 0
Gamma_7_12 0
Gamma_7_13 0
Gamma_8_0 0
Gamma_8_1 1.1569361933080771e+00
Gamma_8_2 0
Gamma_8_3 0
Gamma_8_4 0
Gamma_8_5 0
Gamma_8_6 0
Gamma_8_7 0
Gamma_8_8 1.4374797437522546e+00
Gamma_8_9 0
Gamma_8_10 0
Gamma_8_11 0
Gamma_8_12 0
Gamma_8_13 0
Gamma_9_0 0
Gamma_9_1 0
Gamma_9_2 0
Gamma_9_3 0
Gamma_9_4 0
Gamma_9_5 0
Gamma_9_6 0
Gamma_9_7 0
Gamma_9_8 7.1946709202804571e-01
Gamma_9_9 0.97432648349012
Gamma_9_10 0
Gamma_9_11 0
Gamma_9_12 0
Gamma_9_13 0
Gamma_10_0 0
Gamma_10_1 0
Gamma_10_2 0
Gamma_10_3 -6.3252891756809437e-01
Gamma_10_4 0
Gamma_10_5 -5.1966522173755425e-01
Gamma_10_6 0
Gamma_10_7 0
Gamma_10_8 0
Gamma_10_9 0
Gamma_10_10 7.9810067062470147e-01
Gamma_10_11 0
Gamma_10_12 0
Gamma_10_13 0
Gamma_11_0 0
Gamma_11_1 0
Gamma_11_2 0
Gamma_11_3 0
Gamma_11_4 0
Gamma_11_5 0
Gamma_11_6 0
Gamma_11_7 0
Gamma_11_8 0
Gamma_11_9 0
Gamma_11_10 -5.2548373481984734e-01
Gamma_11_11 0.878126694340801
Gamma_11_12 0
Gamma_11_13 0
Gamma_12_0 0
Gamma_12_1 0
Gamma_12_2 0
Gamma_12_3 0
Gamma_12_4 0
Gamma_12_5 0
Gamma_12_6 0
Gamma_12_7 0
Gamma_12_8 0
Gamma_12_9 0
Gamma_12_10 -8.0654603279733939e-01
Gamma_12_11 0
Gamma_12_12 1.0108561039680393e+00
Gamma_12_13 0
Gamma_13_0 0
Gamma_13_1 0
Gamma_13_2 0
Gamma_13_3 0.819890874717845
Gamma_13_4 0
Gamma_13_5 0
Gamma_13_6 -7.5307547519552043e-01
Gamma_13_7 8.1283541567415607e-01
Gamma_13_8 0
Gamma_13_9 -5.8783869658551757e-01
Gamma_13_10 -8.2765415551153987e-01
Gamma_13_11 0
Gamma_13_12 0
Gamma_13_13 1.0126103650837908e+00
psi_0 6
psi_1 3
psi_2 0
psi_3 5
psi_4 3
psi_5 2
psi_6 1
psi_7 4
psi_8 2
psi_9 1
psi_10 1
psi_11 0
psi_12 0
psi_13 0
g_0_0 0
g_0_1 0
g_0_2 0
g_0_3 0
g_0_4 0
g_0_5 0
g_0_6 0
g_0_7 0
g_0_8 0
g_0_9 0
g_0_10 0
g_0_11 0
g_0_12 0
g_0_13 0
g_1_0 0
g_1_1 0
g_1_2 0
g_1_3 0
g_1_4 0
g_1_5 0
g_1_6 0
g_1_7 0
g_1_8 0
g_1_9 0
g_1_10 0
g_1_11 0
g_1_12 0
g_1_13 0
g_2_0 1
g_2_1 0
g_2_2 0
g_2_3 0
g_2_4 0
g_2_5 0
g_2_6 0
g_2_7 0
g_2_8 0
g_2_9 0
g_2_10 0
g_2_11 0
g_2_12 0
g_2_13 0
g_3_0 1
g_3_1 0
g_3_2 0
g_3_3 0
g_3_4 0
g_3_5 0
g_3_6 0
g_3_7 0
g_3_8 0
g_3_9 0
g_3_10 0
g_3_11 0
g_3_12 0
g_3_13 0
g_4_0 0
g_4_1 0
g_4_2 0
g_4_3 1
g_4_4 0
g_4_5 0
g_4_6 0
g_4_7 1
g_4_8 0
g_4_9 0
g_4_10 0
g_4_11 0
g_4_12 0
g_4_13 0
g_5_0 0
g_5_1 0
g_5_2 0
g_5_3 0
g_5_4 1
g_5_5 0
g_5_6 0
g_5_7 0
g_5_8 0
g_5_9 0
g_5_10 0
g_5_11 0
g_5_12 0
g_5_13 0
g_6_0 0
g_6_1 0
g_6_2 0
g_6_3 0
g_6_4 1
g_6_5 0
g_6_6 0
g_6_7 0
g_6_8 0
g_6_9 0
g_6_10 0
g_6_11 0
g_6_12 0
g_6_13 0
g_7_0 0
g_7_1 0
g_7_2 0
g_7_3 1
g_7_4 0
g_7_5 0
g_7_6 0
g_7_7 0
g_7_8 0
g_7_9 0
g_7_10 0
g_7_11 0
g_7_12 0
g_7_13 0
g_8_0 0
g_8_1 1
g_8_2 0
g_8_3 0
g_8_4 0
g_8_5 0
g_8_6 0
g_8_7 0
g_8_8 0
g_8_9 0
g_8_10 0
g_8_11 0
g_8_12 0
g_8_13 0
g_9_0 0
g_9_1 0
g_9_2 0
g_9_3 0
g_9_4 0
g_9_5 0
g_9_6 0
g_9_7 0
g_9_8 1
g_9_9 0
g_9_10 0
g_9_11 0
g_9_12 0
g_9_13 0
g_10_0 0
g_10_1 0
g_10_2 0
g_10_3 1
g_10_4 0
g_10_5 1
g_10_6 0
g_10_7 0
g_10_8 0
g_10_9 0
g_10_10 0
g_10_11 0
g_10_12 0
g_10_13 0
g_11_0 0
g_11_1 0
g_11_2 0
g_11_3 0
g_11_4 0
g_11_5 0
g_11_6 0
g_11_7 0
g_11_8 0
g_11_9 0
g_11_10 1
g_11_11 0
g_11_12 0
g_11_13 0
g_12_0 0
g_12_1 0
g_12_2 0
g_12_3 0
g_12_4 0
g_12_5 0
g_12_6 0
g_12_7 0
g_12_8 0
g_12_9 0
g_12_10 1
g_12_11 0
g_12_12 0
g_12_13 0
g_13_0 0
g_13_1 0
g_13_2 0
g_13_3 1
g_13_4 0
g_13_5 0
g_13_6 1
g_13_7 1
g_13_8 0
g_13_9 1
g_13_10 1
g_13_11 0
g_13_12 0
g_13_13 0
T_0 0.491691710476843
T_1 5.4065072625746780e-02
T_2 3.7578696190341532e-01
T_3 4.0931125243075428e-01
T_4 -7.8395861196250394e-01
T_5 4.4404340371941942e-01
T_6 -2.0470712763994925e-02
T_7 1.6428520463166763e-01
T_8 -7.2578280457460664e-01
T_9 5.2017665701939109e-02
T_10 4.5104107164799245e-01
T_11 2.5992879392693169e-01
T_12 -2.1595199021632538e-02
T_13 -2.5063033220206421e-02
